
Log started (V22.2.0.0) Tue Jun  9 08:33:19 2026

New value for time limit in seconds: 120
New value for default parallel thread count: 4
New value for mixed integer optimality gap tolerance: 0.001
New value for level of mixed integer node display: 2

Problem 'results/InstanceB8_bigm_finsteps123.lp' read.
Read time = 0.00 sec. (0.02 ticks)
Version identifier: 22.2.0.0 | 2026-05-04 | 5dff98e58
CPXPARAM_Threads                                 4
CPXPARAM_TimeLimit                               120
CPXPARAM_MIP_Tolerances_MIPGap                   0.001
Tried aggregator 5 times.
MIP Presolve eliminated 12 rows and 12 columns.
MIP Presolve modified 1276 coefficients.
Aggregator did 71 substitutions.
Reduced MIP has 210 rows, 143 columns, and 564 nonzeros.
Reduced MIP has 81 binaries, 0 generals, 0 SOSs, and 0 indicators.
Presolve time = 0.00 sec. (1.24 ticks)
Found incumbent of value 15.000000 after 0.00 sec. (1.48 ticks)
Probing time = 0.00 sec. (0.35 ticks)
Tried aggregator 1 time.
Detecting symmetries...
MIP Presolve modified 5 coefficients.
Reduced MIP has 210 rows, 143 columns, and 564 nonzeros.
Reduced MIP has 81 binaries, 0 generals, 0 SOSs, and 0 indicators.
Presolve time = 0.00 sec. (0.32 ticks)
Probing time = 0.00 sec. (0.34 ticks)
Clique table members: 140.
MIP emphasis: balance optimality and feasibility.
MIP search method: dynamic search.
Parallel mode: deterministic, using up to 4 threads.
Root relaxation solution time = 0.00 sec. (0.45 ticks)

        Nodes                                         Cuts/
   Node  Left     Objective  IInf  Best Integer    Best Bound    ItCnt     Gap

*     0+    0                           15.0000        6.0000            60.00%
*     0+    0                           13.0000        6.0000            53.85%
*     0+    0                           10.0000        6.0000            40.00%
      0     0        6.0000     1       10.0000        6.0000       37   40.00%
*     0+    0                            6.0000        6.0000             0.00%
      0     0        cutoff              6.0000        6.0000       37    0.00%
Elapsed time = 0.01 sec. (3.72 ticks, tree = 0.01 MB, solutions = 4)

Root node processing (before b&c):
  Real time             =    0.01 sec. (3.74 ticks)
Parallel b&c, 4 threads:
  Real time             =    0.00 sec. (0.00 ticks)
  Sync time (average)   =    0.00 sec.
  Wait time (average)   =    0.00 sec.
                          ------------
Total (root+branch&cut) =    0.01 sec. (3.74 ticks)

Solution pool: 4 solutions saved.

MIP - Integer optimal solution:  Objective =  6.0000000000e+00
Solution time =    0.01 sec.  Iterations = 37  Nodes = 0
Deterministic time = 3.74 ticks  (520.49 ticks/sec)


Incumbent solution written to file 'results/InstanceB8_bigm_finsteps123.sol'.
